sat
(:max-memory          18.03
 :memory              17.93
 :nlsat-conflicts     1
 :nlsat-learned-added 1
 :nlsat-propagations  14
 :nlsat-stages        5
 :num-allocs          5703
 :rlimit-count        1449
 :time                0.00
 :total-time          0.01)
